c File: flat50_3_0.col
c
c SOURCE: Joseph Culberson (joe@cs.ualberta.ca)
c DESCRIPTION: Quasi-random coloring problem
c              generated with flatness = 0
c                             probability = 0.139
c                             known coloring = 3
c                             random seed = 1184
c              Creation Date:  Tue Jun  9 12:03:11 1998
c Maximum degree = 7 Minimum degree = 2
c p edge 50 115
c cnf created by edge2cnf
p cnf 150 545
-1 -2 0
-1 -3 0
-2 -3 0
1 2 3 0
-4 -5 0
-4 -6 0
-5 -6 0
4 5 6 0
-7 -8 0
-7 -9 0
-8 -9 0
7 8 9 0
-10 -11 0
-10 -12 0
-11 -12 0
10 11 12 0
-13 -14 0
-13 -15 0
-14 -15 0
13 14 15 0
-16 -17 0
-16 -18 0
-17 -18 0
16 17 18 0
-19 -20 0
-19 -21 0
-20 -21 0
19 20 21 0
-22 -23 0
-22 -24 0
-23 -24 0
22 23 24 0
-25 -26 0
-25 -27 0
-26 -27 0
25 26 27 0
-28 -29 0
-28 -30 0
-29 -30 0
28 29 30 0
-31 -32 0
-31 -33 0
-32 -33 0
31 32 33 0
-34 -35 0
-34 -36 0
-35 -36 0
34 35 36 0
-37 -38 0
-37 -39 0
-38 -39 0
37 38 39 0
-40 -41 0
-40 -42 0
-41 -42 0
40 41 42 0
-43 -44 0
-43 -45 0
-44 -45 0
43 44 45 0
-46 -47 0
-46 -48 0
-47 -48 0
46 47 48 0
-49 -50 0
-49 -51 0
-50 -51 0
49 50 51 0
-52 -53 0
-52 -54 0
-53 -54 0
52 53 54 0
-55 -56 0
-55 -57 0
-56 -57 0
55 56 57 0
-58 -59 0
-58 -60 0
-59 -60 0
58 59 60 0
-61 -62 0
-61 -63 0
-62 -63 0
61 62 63 0
-64 -65 0
-64 -66 0
-65 -66 0
64 65 66 0
-67 -68 0
-67 -69 0
-68 -69 0
67 68 69 0
-70 -71 0
-70 -72 0
-71 -72 0
70 71 72 0
-73 -74 0
-73 -75 0
-74 -75 0
73 74 75 0
-76 -77 0
-76 -78 0
-77 -78 0
76 77 78 0
-79 -80 0
-79 -81 0
-80 -81 0
79 80 81 0
-82 -83 0
-82 -84 0
-83 -84 0
82 83 84 0
-85 -86 0
-85 -87 0
-86 -87 0
85 86 87 0
-88 -89 0
-88 -90 0
-89 -90 0
88 89 90 0
-91 -92 0
-91 -93 0
-92 -93 0
91 92 93 0
-94 -95 0
-94 -96 0
-95 -96 0
94 95 96 0
-97 -98 0
-97 -99 0
-98 -99 0
97 98 99 0
-100 -101 0
-100 -102 0
-101 -102 0
100 101 102 0
-103 -104 0
-103 -105 0
-104 -105 0
103 104 105 0
-106 -107 0
-106 -108 0
-107 -108 0
106 107 108 0
-109 -110 0
-109 -111 0
-110 -111 0
109 110 111 0
-112 -113 0
-112 -114 0
-113 -114 0
112 113 114 0
-115 -116 0
-115 -117 0
-116 -117 0
115 116 117 0
-118 -119 0
-118 -120 0
-119 -120 0
118 119 120 0
-121 -122 0
-121 -123 0
-122 -123 0
121 122 123 0
-124 -125 0
-124 -126 0
-125 -126 0
124 125 126 0
-127 -128 0
-127 -129 0
-128 -129 0
127 128 129 0
-130 -131 0
-130 -132 0
-131 -132 0
130 131 132 0
-133 -134 0
-133 -135 0
-134 -135 0
133 134 135 0
-136 -137 0
-136 -138 0
-137 -138 0
136 137 138 0
-139 -140 0
-139 -141 0
-140 -141 0
139 140 141 0
-142 -143 0
-142 -144 0
-143 -144 0
142 143 144 0
-145 -146 0
-145 -147 0
-146 -147 0
145 146 147 0
-148 -149 0
-148 -150 0
-149 -150 0
148 149 150 0
-70 -1 0
-71 -2 0
-72 -3 0
-88 -1 0
-89 -2 0
-90 -3 0
-97 -1 0
-98 -2 0
-99 -3 0
-100 -1 0
-101 -2 0
-102 -3 0
-118 -1 0
-119 -2 0
-120 -3 0
-82 -4 0
-83 -5 0
-84 -6 0
-97 -4 0
-98 -5 0
-99 -6 0
-118 -4 0
-119 -5 0
-120 -6 0
-127 -4 0
-128 -5 0
-129 -6 0
-130 -4 0
-131 -5 0
-132 -6 0
-142 -4 0
-143 -5 0
-144 -6 0
-64 -7 0
-65 -8 0
-66 -9 0
-142 -7 0
-143 -8 0
-144 -9 0
-145 -7 0
-146 -8 0
-147 -9 0
-52 -10 0
-53 -11 0
-54 -12 0
-82 -10 0
-83 -11 0
-84 -12 0
-85 -10 0
-86 -11 0
-87 -12 0
-115 -10 0
-116 -11 0
-117 -12 0
-127 -10 0
-128 -11 0
-129 -12 0
-136 -10 0
-137 -11 0
-138 -12 0
-61 -13 0
-62 -14 0
-63 -15 0
-67 -13 0
-68 -14 0
-69 -15 0
-85 -13 0
-86 -14 0
-87 -15 0
-136 -13 0
-137 -14 0
-138 -15 0
-55 -16 0
-56 -17 0
-57 -18 0
-64 -16 0
-65 -17 0
-66 -18 0
-85 -16 0
-86 -17 0
-87 -18 0
-97 -16 0
-98 -17 0
-99 -18 0
-118 -16 0
-119 -17 0
-120 -18 0
-85 -19 0
-86 -20 0
-87 -21 0
-124 -19 0
-125 -20 0
-126 -21 0
-133 -19 0
-134 -20 0
-135 -21 0
-91 -22 0
-92 -23 0
-93 -24 0
-133 -22 0
-134 -23 0
-135 -24 0
-55 -25 0
-56 -26 0
-57 -27 0
-91 -25 0
-92 -26 0
-93 -27 0
-106 -25 0
-107 -26 0
-108 -27 0
-121 -25 0
-122 -26 0
-123 -27 0
-145 -25 0
-146 -26 0
-147 -27 0
-58 -28 0
-59 -29 0
-60 -30 0
-64 -28 0
-65 -29 0
-66 -30 0
-70 -28 0
-71 -29 0
-72 -30 0
-73 -28 0
-74 -29 0
-75 -30 0
-118 -28 0
-119 -29 0
-120 -30 0
-67 -31 0
-68 -32 0
-69 -33 0
-76 -31 0
-77 -32 0
-78 -33 0
-100 -31 0
-101 -32 0
-102 -33 0
-109 -31 0
-110 -32 0
-111 -33 0
-115 -31 0
-116 -32 0
-117 -33 0
-133 -31 0
-134 -32 0
-135 -33 0
-73 -34 0
-74 -35 0
-75 -36 0
-76 -34 0
-77 -35 0
-78 -36 0
-106 -34 0
-107 -35 0
-108 -36 0
-109 -34 0
-110 -35 0
-111 -36 0
-139 -34 0
-140 -35 0
-141 -36 0
-148 -34 0
-149 -35 0
-150 -36 0
-67 -37 0
-68 -38 0
-69 -39 0
-112 -37 0
-113 -38 0
-114 -39 0
-124 -37 0
-125 -38 0
-126 -39 0
-142 -37 0
-143 -38 0
-144 -39 0
-58 -40 0
-59 -41 0
-60 -42 0
-121 -40 0
-122 -41 0
-123 -42 0
-133 -40 0
-134 -41 0
-135 -42 0
-64 -43 0
-65 -44 0
-66 -45 0
-73 -43 0
-74 -44 0
-75 -45 0
-88 -43 0
-89 -44 0
-90 -45 0
-94 -43 0
-95 -44 0
-96 -45 0
-109 -43 0
-110 -44 0
-111 -45 0
-130 -43 0
-131 -44 0
-132 -45 0
-142 -43 0
-143 -44 0
-144 -45 0
-70 -46 0
-71 -47 0
-72 -48 0
-94 -46 0
-95 -47 0
-96 -48 0
-121 -46 0
-122 -47 0
-123 -48 0
-139 -46 0
-140 -47 0
-141 -48 0
-58 -49 0
-59 -50 0
-60 -51 0
-61 -49 0
-62 -50 0
-63 -51 0
-136 -49 0
-137 -50 0
-138 -51 0
-112 -52 0
-113 -53 0
-114 -54 0
-124 -52 0
-125 -53 0
-126 -54 0
-139 -52 0
-140 -53 0
-141 -54 0
-106 -55 0
-107 -56 0
-108 -57 0
-103 -61 0
-104 -62 0
-105 -63 0
-109 -61 0
-110 -62 0
-111 -63 0
-133 -61 0
-134 -62 0
-135 -63 0
-106 -64 0
-107 -65 0
-108 -66 0
-115 -64 0
-116 -65 0
-117 -66 0
-136 -64 0
-137 -65 0
-138 -66 0
-124 -67 0
-125 -68 0
-126 -69 0
-139 -67 0
-140 -68 0
-141 -69 0
-109 -70 0
-110 -71 0
-111 -72 0
-115 -70 0
-116 -71 0
-117 -72 0
-127 -70 0
-128 -71 0
-129 -72 0
-148 -70 0
-149 -71 0
-150 -72 0
-121 -73 0
-122 -74 0
-123 -75 0
-136 -73 0
-137 -74 0
-138 -75 0
-139 -73 0
-140 -74 0
-141 -75 0
-121 -76 0
-122 -77 0
-123 -78 0
-127 -76 0
-128 -77 0
-129 -78 0
-109 -79 0
-110 -80 0
-111 -81 0
-142 -79 0
-143 -80 0
-144 -81 0
-145 -79 0
-146 -80 0
-147 -81 0
-136 -82 0
-137 -83 0
-138 -84 0
-142 -85 0
-143 -86 0
-144 -87 0
-148 -85 0
-149 -86 0
-150 -87 0
-136 -88 0
-137 -89 0
-138 -90 0
-139 -88 0
-140 -89 0
-141 -90 0
-103 -91 0
-104 -92 0
-105 -93 0
-124 -91 0
-125 -92 0
-126 -93 0
-127 -91 0
-128 -92 0
-129 -93 0
-145 -94 0
-146 -95 0
-147 -96 0
-103 -97 0
-104 -98 0
-105 -99 0
-148 -97 0
-149 -98 0
-150 -99 0
-121 -100 0
-122 -101 0
-123 -102 0
-124 -100 0
-125 -101 0
-126 -102 0
-145 -100 0
-146 -101 0
-147 -102 0
